p cnf 196 964
c p weight 12 1.0 0
c p weight -12 1 0
c p weight 13 0 0
c p weight -13 1 0
c p weight 16 0 0
c p weight -16 1 0
c p weight 17 1.0 0
c p weight -17 1 0
c p weight 20 -0.7071067811865475 0
c p weight -20 1 0
c p weight 21 0.7071067811865476 0
c p weight -21 1 0
c p weight 24 0 0
c p weight -24 1 0
c p weight 25 1.0 0
c p weight -25 1 0
c p weight 28 -1.0 0
c p weight -28 1 0
c p weight 29 0 0
c p weight -29 1 0
c p weight 34 0 0
c p weight -34 1 0
c p weight 35 1.0 0
c p weight -35 1 0
c p weight 40 1.0 0
c p weight -40 1 0
c p weight 41 0 0
c p weight -41 1 0
c p weight 44 0 0
c p weight -44 1 0
c p weight 45 1.0 0
c p weight -45 1 0
c p weight 48 -0.5773502691896257 0
c p weight -48 1 0
c p weight 49 0.816496580927726 0
c p weight -49 1 0
c p weight 52 0 0
c p weight -52 1 0
c p weight 53 1.0 0
c p weight -53 1 0
c p weight 56 -1.0 0
c p weight -56 1 0
c p weight 57 0 0
c p weight -57 1 0
c p weight 62 0 0
c p weight -62 1 0
c p weight 63 1.0 0
c p weight -63 1 0
c p weight 68 1.0 0
c p weight -68 1 0
c p weight 69 0 0
c p weight -69 1 0
c p weight 72 0 0
c p weight -72 1 0
c p weight 73 1.0 0
c p weight -73 1 0
c p weight 76 -0.49999999999999983 0
c p weight -76 1 0
c p weight 77 0.8660254037844387 0
c p weight -77 1 0
c p weight 80 0 0
c p weight -80 1 0
c p weight 81 1.0 0
c p weight -81 1 0
c p weight 84 -1.0 0
c p weight -84 1 0
c p weight 85 0 0
c p weight -85 1 0
c p weight 90 0 0
c p weight -90 1 0
c p weight 91 1.0 0
c p weight -91 1 0
c p weight 102 0 0
c p weight -102 1 0
c p weight 103 1.0 0
c p weight -103 1 0
c p weight 108 1.0 0
c p weight -108 1 0
c p weight 109 0 0
c p weight -109 1 0
c p weight 112 0 0
c p weight -112 1 0
c p weight 113 1.0 0
c p weight -113 1 0
c p weight 116 -0.5000000000000004 0
c p weight -116 1 0
c p weight 117 -0.8660254037844384 0
c p weight -117 1 0
c p weight 120 0 0
c p weight -120 1 0
c p weight 121 1.0 0
c p weight -121 1 0
c p weight 124 -1.0 0
c p weight -124 1 0
c p weight 125 0 0
c p weight -125 1 0
c p weight 133 0 0
c p weight -133 1 0
c p weight 134 1.0 0
c p weight -134 1 0
c p weight 139 1.0 0
c p weight -139 1 0
c p weight 140 0 0
c p weight -140 1 0
c p weight 143 0 0
c p weight -143 1 0
c p weight 144 1.0 0
c p weight -144 1 0
c p weight 147 -0.5773502691896256 0
c p weight -147 1 0
c p weight 148 -0.8164965809277261 0
c p weight -148 1 0
c p weight 151 0 0
c p weight -151 1 0
c p weight 152 1.0 0
c p weight -152 1 0
c p weight 155 -1.0 0
c p weight -155 1 0
c p weight 156 0 0
c p weight -156 1 0
c p weight 164 0 0
c p weight -164 1 0
c p weight 165 1.0 0
c p weight -165 1 0
c p weight 170 1.0 0
c p weight -170 1 0
c p weight 171 0 0
c p weight -171 1 0
c p weight 174 0 0
c p weight -174 1 0
c p weight 175 1.0 0
c p weight -175 1 0
c p weight 178 -0.7071067811865477 0
c p weight -178 1 0
c p weight 179 -0.7071067811865475 0
c p weight -179 1 0
c p weight 182 0 0
c p weight -182 1 0
c p weight 183 1.0 0
c p weight -183 1 0
c p weight 186 -1.0 0
c p weight -186 1 0
c p weight 187 0 0
c p weight -187 1 0
10 -9 1 0
10 -9 2 0
-10 9 1 0
-10 9 2 0
10 -11 -9 0
-10 -11 9 0
10 11 9 -1 -2 0
-10 11 -9 -1 -2 0
11 1 -2 0
-11 1 2 0
-12 1 0
11 -12 -2 0
-11 -12 2 0
11 12 -1 2 0
-11 12 -1 -2 0
-13 1 0
11 -13 2 0
-11 -13 -2 0
11 13 -1 -2 0
-11 13 -1 2 0
14 15 -10 0
14 -10 11 0
-14 15 10 0
-14 10 11 0
14 -10 -1 0
-14 10 -1 0
14 -15 10 1 -11 0
-14 -15 -10 1 -11 0
15 -1 11 0
-15 1 11 0
-16 11 0
15 -16 -1 0
-15 -16 1 0
15 16 1 -11 0
-15 16 -1 -11 0
-17 11 0
15 -17 1 0
-15 -17 -1 0
15 17 -1 -11 0
-15 17 1 -11 0
18 -14 15 0
18 -14 11 0
-18 14 15 0
-18 14 11 0
18 -19 -14 0
-18 -19 14 0
18 19 14 -15 -11 0
-18 19 -14 -15 -11 0
19 15 -11 0
-19 15 11 0
-20 15 0
19 -20 -11 0
-19 -20 11 0
19 20 -15 11 0
-19 20 -15 -11 0
-21 15 0
19 -21 11 0
-19 -21 -11 0
19 21 -15 -11 0
-19 21 -15 11 0
22 23 -18 0
22 -18 19 0
-22 23 18 0
-22 18 19 0
22 -18 -15 0
-22 18 -15 0
22 -23 18 15 -19 0
-22 -23 -18 15 -19 0
23 -15 19 0
-23 15 19 0
-24 19 0
23 -24 -15 0
-23 -24 15 0
23 24 15 -19 0
-23 24 -15 -19 0
-25 19 0
23 -25 15 0
-23 -25 -15 0
23 25 -15 -19 0
-23 25 15 -19 0
26 -22 23 0
26 -22 19 0
-26 22 23 0
-26 22 19 0
26 -27 -22 0
-26 -27 22 0
26 27 22 -23 -19 0
-26 27 -22 -23 -19 0
27 23 -19 0
-27 23 19 0
-28 23 0
27 -28 -19 0
-27 -28 19 0
27 28 -23 19 0
-27 28 -23 -19 0
-29 23 0
27 -29 19 0
-27 -29 -19 0
27 29 -23 -19 0
-27 29 -23 19 0
30 -26 23 0
30 -26 27 0
-30 26 23 0
-30 26 27 0
30 26 -23 -27 0
-30 -26 -23 -27 0
31 23 -27 0
31 -23 27 0
-31 23 27 0
-31 -23 -27 0
32 33 -30 0
32 -30 31 0
-32 33 30 0
-32 30 31 0
32 -30 -23 0
-32 30 -23 0
32 -33 30 23 -31 0
-32 -33 -30 23 -31 0
33 -23 31 0
-33 23 31 0
-34 31 0
33 -34 -23 0
-33 -34 23 0
33 34 23 -31 0
-33 34 -23 -31 0
-35 31 0
33 -35 23 0
-33 -35 -23 0
33 35 -23 -31 0
-33 35 23 -31 0
36 -32 33 0
36 -32 31 0
-36 32 33 0
-36 32 31 0
36 32 -33 -31 0
-36 -32 -33 -31 0
37 33 -31 0
37 -33 31 0
-37 33 31 0
-37 -33 -31 0
38 -36 3 0
38 -36 4 0
-38 36 3 0
-38 36 4 0
38 -39 -36 0
-38 -39 36 0
38 39 36 -3 -4 0
-38 39 -36 -3 -4 0
39 3 -4 0
-39 3 4 0
-40 3 0
39 -40 -4 0
-39 -40 4 0
39 40 -3 4 0
-39 40 -3 -4 0
-41 3 0
39 -41 4 0
-39 -41 -4 0
39 41 -3 -4 0
-39 41 -3 4 0
42 43 -38 0
42 -38 39 0
-42 43 38 0
-42 38 39 0
42 -38 -3 0
-42 38 -3 0
42 -43 38 3 -39 0
-42 -43 -38 3 -39 0
43 -3 39 0
-43 3 39 0
-44 39 0
43 -44 -3 0
-43 -44 3 0
43 44 3 -39 0
-43 44 -3 -39 0
-45 39 0
43 -45 3 0
-43 -45 -3 0
43 45 -3 -39 0
-43 45 3 -39 0
46 -42 43 0
46 -42 39 0
-46 42 43 0
-46 42 39 0
46 -47 -42 0
-46 -47 42 0
46 47 42 -43 -39 0
-46 47 -42 -43 -39 0
47 43 -39 0
-47 43 39 0
-48 43 0
47 -48 -39 0
-47 -48 39 0
47 48 -43 39 0
-47 48 -43 -39 0
-49 43 0
47 -49 39 0
-47 -49 -39 0
47 49 -43 -39 0
-47 49 -43 39 0
50 51 -46 0
50 -46 47 0
-50 51 46 0
-50 46 47 0
50 -46 -43 0
-50 46 -43 0
50 -51 46 43 -47 0
-50 -51 -46 43 -47 0
51 -43 47 0
-51 43 47 0
-52 47 0
51 -52 -43 0
-51 -52 43 0
51 52 43 -47 0
-51 52 -43 -47 0
-53 47 0
51 -53 43 0
-51 -53 -43 0
51 53 -43 -47 0
-51 53 43 -47 0
54 -50 51 0
54 -50 47 0
-54 50 51 0
-54 50 47 0
54 -55 -50 0
-54 -55 50 0
54 55 50 -51 -47 0
-54 55 -50 -51 -47 0
55 51 -47 0
-55 51 47 0
-56 51 0
55 -56 -47 0
-55 -56 47 0
55 56 -51 47 0
-55 56 -51 -47 0
-57 51 0
55 -57 47 0
-55 -57 -47 0
55 57 -51 -47 0
-55 57 -51 47 0
58 -54 51 0
58 -54 55 0
-58 54 51 0
-58 54 55 0
58 54 -51 -55 0
-58 -54 -51 -55 0
59 51 -55 0
59 -51 55 0
-59 51 55 0
-59 -51 -55 0
60 61 -58 0
60 -58 59 0
-60 61 58 0
-60 58 59 0
60 -58 -51 0
-60 58 -51 0
60 -61 58 51 -59 0
-60 -61 -58 51 -59 0
61 -51 59 0
-61 51 59 0
-62 59 0
61 -62 -51 0
-61 -62 51 0
61 62 51 -59 0
-61 62 -51 -59 0
-63 59 0
61 -63 51 0
-61 -63 -51 0
61 63 -51 -59 0
-61 63 51 -59 0
64 -60 61 0
64 -60 59 0
-64 60 61 0
-64 60 59 0
64 60 -61 -59 0
-64 -60 -61 -59 0
65 61 -59 0
65 -61 59 0
-65 61 59 0
-65 -61 -59 0
66 -64 5 0
66 -64 6 0
-66 64 5 0
-66 64 6 0
66 -67 -64 0
-66 -67 64 0
66 67 64 -5 -6 0
-66 67 -64 -5 -6 0
67 5 -6 0
-67 5 6 0
-68 5 0
67 -68 -6 0
-67 -68 6 0
67 68 -5 6 0
-67 68 -5 -6 0
-69 5 0
67 -69 6 0
-67 -69 -6 0
67 69 -5 -6 0
-67 69 -5 6 0
70 71 -66 0
70 -66 67 0
-70 71 66 0
-70 66 67 0
70 -66 -5 0
-70 66 -5 0
70 -71 66 5 -67 0
-70 -71 -66 5 -67 0
71 -5 67 0
-71 5 67 0
-72 67 0
71 -72 -5 0
-71 -72 5 0
71 72 5 -67 0
-71 72 -5 -67 0
-73 67 0
71 -73 5 0
-71 -73 -5 0
71 73 -5 -67 0
-71 73 5 -67 0
74 -70 71 0
74 -70 67 0
-74 70 71 0
-74 70 67 0
74 -75 -70 0
-74 -75 70 0
74 75 70 -71 -67 0
-74 75 -70 -71 -67 0
75 71 -67 0
-75 71 67 0
-76 71 0
75 -76 -67 0
-75 -76 67 0
75 76 -71 67 0
-75 76 -71 -67 0
-77 71 0
75 -77 67 0
-75 -77 -67 0
75 77 -71 -67 0
-75 77 -71 67 0
78 79 -74 0
78 -74 75 0
-78 79 74 0
-78 74 75 0
78 -74 -71 0
-78 74 -71 0
78 -79 74 71 -75 0
-78 -79 -74 71 -75 0
79 -71 75 0
-79 71 75 0
-80 75 0
79 -80 -71 0
-79 -80 71 0
79 80 71 -75 0
-79 80 -71 -75 0
-81 75 0
79 -81 71 0
-79 -81 -71 0
79 81 -71 -75 0
-79 81 71 -75 0
82 -78 79 0
82 -78 75 0
-82 78 79 0
-82 78 75 0
82 -83 -78 0
-82 -83 78 0
82 83 78 -79 -75 0
-82 83 -78 -79 -75 0
83 79 -75 0
-83 79 75 0
-84 79 0
83 -84 -75 0
-83 -84 75 0
83 84 -79 75 0
-83 84 -79 -75 0
-85 79 0
83 -85 75 0
-83 -85 -75 0
83 85 -79 -75 0
-83 85 -79 75 0
86 -82 79 0
86 -82 83 0
-86 82 79 0
-86 82 83 0
86 82 -79 -83 0
-86 -82 -79 -83 0
87 79 -83 0
87 -79 83 0
-87 79 83 0
-87 -79 -83 0
88 89 -86 0
88 -86 87 0
-88 89 86 0
-88 86 87 0
88 -86 -79 0
-88 86 -79 0
88 -89 86 79 -87 0
-88 -89 -86 79 -87 0
89 -79 87 0
-89 79 87 0
-90 87 0
89 -90 -79 0
-89 -90 79 0
89 90 79 -87 0
-89 90 -79 -87 0
-91 87 0
89 -91 79 0
-89 -91 -79 0
89 91 -79 -87 0
-89 91 79 -87 0
92 -88 89 0
92 -88 87 0
-92 88 89 0
-92 88 87 0
92 88 -89 -87 0
-92 -88 -89 -87 0
93 89 -87 0
93 -89 87 0
-93 89 87 0
-93 -89 -87 0
94 92 -8 0
94 -92 8 0
-94 92 8 0
-94 -92 -8 0
95 -94 7 0
95 -94 93 0
-95 94 7 0
-95 94 93 0
95 -94 89 -8 0
95 -94 -89 8 0
-95 94 89 -8 0
-95 94 -89 8 0
95 94 -7 89 8 -93 0
95 94 -7 -89 -8 -93 0
-95 -94 -7 89 8 -93 0
-95 -94 -7 -89 -8 -93 0
97 7 -89 0
97 -7 89 0
-97 7 89 0
-97 -7 -89 0
96 8 -93 0
96 -8 93 0
-96 8 93 0
-96 -8 -93 0
98 -95 97 0
98 -95 93 0
-98 95 97 0
-98 95 93 0
98 95 -97 -93 0
-98 -95 -97 -93 0
99 97 -93 0
99 -97 93 0
-99 97 93 0
-99 -97 -93 0
100 101 -98 0
100 -98 99 0
-100 101 98 0
-100 98 99 0
100 -98 -97 0
-100 98 -97 0
100 -101 98 97 -99 0
-100 -101 -98 97 -99 0
101 -97 99 0
-101 97 99 0
-102 99 0
101 -102 -97 0
-101 -102 97 0
101 102 97 -99 0
-101 102 -97 -99 0
-103 99 0
101 -103 97 0
-101 -103 -97 0
101 103 -97 -99 0
-101 103 97 -99 0
104 -100 101 0
104 -100 99 0
-104 100 101 0
-104 100 99 0
104 100 -101 -99 0
-104 -100 -101 -99 0
105 101 -99 0
105 -101 99 0
-105 101 99 0
-105 -101 -99 0
106 -104 101 0
106 -104 105 0
-106 104 101 0
-106 104 105 0
106 -107 -104 0
-106 -107 104 0
106 107 104 -101 -105 0
-106 107 -104 -101 -105 0
107 101 -105 0
-107 101 105 0
-108 101 0
107 -108 -105 0
-107 -108 105 0
107 108 -101 105 0
-107 108 -101 -105 0
-109 101 0
107 -109 105 0
-107 -109 -105 0
107 109 -101 -105 0
-107 109 -101 105 0
110 111 -106 0
110 -106 107 0
-110 111 106 0
-110 106 107 0
110 -106 -101 0
-110 106 -101 0
110 -111 106 101 -107 0
-110 -111 -106 101 -107 0
111 -101 107 0
-111 101 107 0
-112 107 0
111 -112 -101 0
-111 -112 101 0
111 112 101 -107 0
-111 112 -101 -107 0
-113 107 0
111 -113 101 0
-111 -113 -101 0
111 113 -101 -107 0
-111 113 101 -107 0
114 -110 111 0
114 -110 107 0
-114 110 111 0
-114 110 107 0
114 -115 -110 0
-114 -115 110 0
114 115 110 -111 -107 0
-114 115 -110 -111 -107 0
115 111 -107 0
-115 111 107 0
-116 111 0
115 -116 -107 0
-115 -116 107 0
115 116 -111 107 0
-115 116 -111 -107 0
-117 111 0
115 -117 107 0
-115 -117 -107 0
115 117 -111 -107 0
-115 117 -111 107 0
118 119 -114 0
118 -114 115 0
-118 119 114 0
-118 114 115 0
118 -114 -111 0
-118 114 -111 0
118 -119 114 111 -115 0
-118 -119 -114 111 -115 0
119 -111 115 0
-119 111 115 0
-120 115 0
119 -120 -111 0
-119 -120 111 0
119 120 111 -115 0
-119 120 -111 -115 0
-121 115 0
119 -121 111 0
-119 -121 -111 0
119 121 -111 -115 0
-119 121 111 -115 0
122 -118 119 0
122 -118 115 0
-122 118 119 0
-122 118 115 0
122 -123 -118 0
-122 -123 118 0
122 123 118 -119 -115 0
-122 123 -118 -119 -115 0
123 119 -115 0
-123 119 115 0
-124 119 0
123 -124 -115 0
-123 -124 115 0
123 124 -119 115 0
-123 124 -119 -115 0
-125 119 0
123 -125 115 0
-123 -125 -115 0
123 125 -119 -115 0
-123 125 -119 115 0
126 -122 119 0
126 -122 65 0
-126 122 119 0
-126 122 65 0
126 -122 61 -123 0
126 -122 -61 123 0
-126 122 61 -123 0
-126 122 -61 123 0
126 122 -119 61 123 -65 0
126 122 -119 -61 -123 -65 0
-126 -122 -119 61 123 -65 0
-126 -122 -119 -61 -123 -65 0
128 119 -61 0
128 -119 61 0
-128 119 61 0
-128 -119 -61 0
127 123 -65 0
127 -123 65 0
-127 123 65 0
-127 -123 -65 0
129 -126 128 0
129 -126 65 0
-129 126 128 0
-129 126 65 0
129 126 -128 -65 0
-129 -126 -128 -65 0
130 128 -65 0
130 -128 65 0
-130 128 65 0
-130 -128 -65 0
131 132 -129 0
131 -129 130 0
-131 132 129 0
-131 129 130 0
131 -129 -128 0
-131 129 -128 0
131 -132 129 128 -130 0
-131 -132 -129 128 -130 0
132 -128 130 0
-132 128 130 0
-133 130 0
132 -133 -128 0
-132 -133 128 0
132 133 128 -130 0
-132 133 -128 -130 0
-134 130 0
132 -134 128 0
-132 -134 -128 0
132 134 -128 -130 0
-132 134 128 -130 0
135 -131 132 0
135 -131 130 0
-135 131 132 0
-135 131 130 0
135 131 -132 -130 0
-135 -131 -132 -130 0
136 132 -130 0
136 -132 130 0
-136 132 130 0
-136 -132 -130 0
137 -135 132 0
137 -135 136 0
-137 135 132 0
-137 135 136 0
137 -138 -135 0
-137 -138 135 0
137 138 135 -132 -136 0
-137 138 -135 -132 -136 0
138 132 -136 0
-138 132 136 0
-139 132 0
138 -139 -136 0
-138 -139 136 0
138 139 -132 136 0
-138 139 -132 -136 0
-140 132 0
138 -140 136 0
-138 -140 -136 0
138 140 -132 -136 0
-138 140 -132 136 0
141 142 -137 0
141 -137 138 0
-141 142 137 0
-141 137 138 0
141 -137 -132 0
-141 137 -132 0
141 -142 137 132 -138 0
-141 -142 -137 132 -138 0
142 -132 138 0
-142 132 138 0
-143 138 0
142 -143 -132 0
-142 -143 132 0
142 143 132 -138 0
-142 143 -132 -138 0
-144 138 0
142 -144 132 0
-142 -144 -132 0
142 144 -132 -138 0
-142 144 132 -138 0
145 -141 142 0
145 -141 138 0
-145 141 142 0
-145 141 138 0
145 -146 -141 0
-145 -146 141 0
145 146 141 -142 -138 0
-145 146 -141 -142 -138 0
146 142 -138 0
-146 142 138 0
-147 142 0
146 -147 -138 0
-146 -147 138 0
146 147 -142 138 0
-146 147 -142 -138 0
-148 142 0
146 -148 138 0
-146 -148 -138 0
146 148 -142 -138 0
-146 148 -142 138 0
149 150 -145 0
149 -145 146 0
-149 150 145 0
-149 145 146 0
149 -145 -142 0
-149 145 -142 0
149 -150 145 142 -146 0
-149 -150 -145 142 -146 0
150 -142 146 0
-150 142 146 0
-151 146 0
150 -151 -142 0
-150 -151 142 0
150 151 142 -146 0
-150 151 -142 -146 0
-152 146 0
150 -152 142 0
-150 -152 -142 0
150 152 -142 -146 0
-150 152 142 -146 0
153 -149 150 0
153 -149 146 0
-153 149 150 0
-153 149 146 0
153 -154 -149 0
-153 -154 149 0
153 154 149 -150 -146 0
-153 154 -149 -150 -146 0
154 150 -146 0
-154 150 146 0
-155 150 0
154 -155 -146 0
-154 -155 146 0
154 155 -150 146 0
-154 155 -150 -146 0
-156 150 0
154 -156 146 0
-154 -156 -146 0
154 156 -150 -146 0
-154 156 -150 146 0
157 -153 150 0
157 -153 37 0
-157 153 150 0
-157 153 37 0
157 -153 33 -154 0
157 -153 -33 154 0
-157 153 33 -154 0
-157 153 -33 154 0
157 153 -150 33 154 -37 0
157 153 -150 -33 -154 -37 0
-157 -153 -150 33 154 -37 0
-157 -153 -150 -33 -154 -37 0
159 150 -33 0
159 -150 33 0
-159 150 33 0
-159 -150 -33 0
158 154 -37 0
158 -154 37 0
-158 154 37 0
-158 -154 -37 0
160 -157 159 0
160 -157 37 0
-160 157 159 0
-160 157 37 0
160 157 -159 -37 0
-160 -157 -159 -37 0
161 159 -37 0
161 -159 37 0
-161 159 37 0
-161 -159 -37 0
162 163 -160 0
162 -160 161 0
-162 163 160 0
-162 160 161 0
162 -160 -159 0
-162 160 -159 0
162 -163 160 159 -161 0
-162 -163 -160 159 -161 0
163 -159 161 0
-163 159 161 0
-164 161 0
163 -164 -159 0
-163 -164 159 0
163 164 159 -161 0
-163 164 -159 -161 0
-165 161 0
163 -165 159 0
-163 -165 -159 0
163 165 -159 -161 0
-163 165 159 -161 0
166 -162 163 0
166 -162 161 0
-166 162 163 0
-166 162 161 0
166 162 -163 -161 0
-166 -162 -163 -161 0
167 163 -161 0
167 -163 161 0
-167 163 161 0
-167 -163 -161 0
168 -166 163 0
168 -166 167 0
-168 166 163 0
-168 166 167 0
168 -169 -166 0
-168 -169 166 0
168 169 166 -163 -167 0
-168 169 -166 -163 -167 0
169 163 -167 0
-169 163 167 0
-170 163 0
169 -170 -167 0
-169 -170 167 0
169 170 -163 167 0
-169 170 -163 -167 0
-171 163 0
169 -171 167 0
-169 -171 -167 0
169 171 -163 -167 0
-169 171 -163 167 0
172 173 -168 0
172 -168 169 0
-172 173 168 0
-172 168 169 0
172 -168 -163 0
-172 168 -163 0
172 -173 168 163 -169 0
-172 -173 -168 163 -169 0
173 -163 169 0
-173 163 169 0
-174 169 0
173 -174 -163 0
-173 -174 163 0
173 174 163 -169 0
-173 174 -163 -169 0
-175 169 0
173 -175 163 0
-173 -175 -163 0
173 175 -163 -169 0
-173 175 163 -169 0
176 -172 173 0
176 -172 169 0
-176 172 173 0
-176 172 169 0
176 -177 -172 0
-176 -177 172 0
176 177 172 -173 -169 0
-176 177 -172 -173 -169 0
177 173 -169 0
-177 173 169 0
-178 173 0
177 -178 -169 0
-177 -178 169 0
177 178 -173 169 0
-177 178 -173 -169 0
-179 173 0
177 -179 169 0
-177 -179 -169 0
177 179 -173 -169 0
-177 179 -173 169 0
180 181 -176 0
180 -176 177 0
-180 181 176 0
-180 176 177 0
180 -176 -173 0
-180 176 -173 0
180 -181 176 173 -177 0
-180 -181 -176 173 -177 0
181 -173 177 0
-181 173 177 0
-182 177 0
181 -182 -173 0
-181 -182 173 0
181 182 173 -177 0
-181 182 -173 -177 0
-183 177 0
181 -183 173 0
-181 -183 -173 0
181 183 -173 -177 0
-181 183 173 -177 0
184 -180 181 0
184 -180 177 0
-184 180 181 0
-184 180 177 0
184 -185 -180 0
-184 -185 180 0
184 185 180 -181 -177 0
-184 185 -180 -181 -177 0
185 181 -177 0
-185 181 177 0
-186 181 0
185 -186 -177 0
-185 -186 177 0
185 186 -181 177 0
-185 186 -181 -177 0
-187 181 0
185 -187 177 0
-185 -187 -177 0
185 187 -181 -177 0
-185 187 -181 177 0
188 -184 119 0
188 -184 96 0
-188 184 119 0
-188 184 96 0
188 -184 7 -127 0
188 -184 -7 127 0
-188 184 7 -127 0
-188 184 -7 127 0
188 184 -119 7 127 -96 0
188 184 -119 -7 -127 -96 0
-188 -184 -119 7 127 -96 0
-188 -184 -119 -7 -127 -96 0
190 119 -7 0
190 -119 7 0
-190 119 7 0
-190 -119 -7 0
189 127 -96 0
189 -127 96 0
-189 127 96 0
-189 -127 -96 0
191 -188 150 0
191 -188 189 0
-191 188 150 0
-191 188 189 0
191 -188 119 -158 0
191 -188 -119 158 0
-191 188 119 -158 0
-191 188 -119 158 0
191 188 -150 119 158 -189 0
191 188 -150 -119 -158 -189 0
-191 -188 -150 119 158 -189 0
-191 -188 -150 -119 -158 -189 0
193 150 -119 0
193 -150 119 0
-193 150 119 0
-193 -150 -119 0
192 158 -189 0
192 -158 189 0
-192 158 189 0
-192 -158 -189 0
194 -191 181 0
194 -191 192 0
-194 191 181 0
-194 191 192 0
194 -191 150 -185 0
194 -191 -150 185 0
-194 191 150 -185 0
-194 191 -150 185 0
194 191 -181 150 185 -192 0
194 191 -181 -150 -185 -192 0
-194 -191 -181 150 185 -192 0
-194 -191 -181 -150 -185 -192 0
196 181 -150 0
196 -181 150 0
-196 181 150 0
-196 -181 -150 0
195 185 -192 0
195 -185 192 0
-195 185 192 0
-195 -185 -192 0
